BAYES
5
2 2 2 2 2
1
5 0 1 2 3 4

32
 0.424 0.568 0.552 0.663 0.424 0.568 0.552 0.663 0.424 0.568 0.552 0.663 0.424 0.568 0.552 0.663
 0.345 0.287 0.972 0.523 0.424 0.568 0.552 0.663 0.424 0.568 0.552 0.663 0.424 0.568 0.552 0.663